21
3 0 1 0
3 0 2 0
3 0 7 0
3 0 5 0
3 0 9 0
3 0 21 0
3 0 3 0
3 0 12 0
3 0 17 0
3 0 35 0
3 0 16 0
3 0 20 0
4 0 4 34 0
3 0 32 0
3 0 15 0
4 0 33 22 0
5 0 23 28 30 0
6 0 24 27 18 25 0
5 0 13 10 14 0
5 0 6 19 11 0
7 0 36 31 29 26 8 0
